NAME : pr76.317234.tour
COMMENT : Cost = 37972_317234
COMMENT : Found by LKH [Keld Helsgaun] Thu Nov 16 17:37:15 2017
TYPE : TOUR
DIMENSION : 95
TOUR_SECTION
1
2
95
46
45
47
69
68
70
67
48
44
92
49
50
66
65
71
51
52
53
54
27
94
28
57
63
64
72
56
55
42
43
26
93
10
11
17
18
37
36
38
39
61
62
58
59
60
41
40
34
35
33
32
29
30
31
19
20
90
73
91
9
12
16
15
13
14
74
89
5
88
8
87
6
86
24
85
7
84
25
83
4
82
21
81
76
80
3
79
75
78
22
77
23
-1
EOF
